CMD:
./solvers/bin/cadical --plain --no-reduce -t 1600 ./data/cnfs//cal97/cal97.37.cnf

c --- [ banner ] -------------------------------------------------------------
c 
c CaDiCaL SAT Solver
c Copyright (c) 2016-2024
c A. Biere, M. Fleury, N. Froleyks, K. Fazekas, F. Pollitt, T. Faller
c JKU Linz, University of Freiburg, TU Wien
c 
c Version 2.1.3 5296d3d2a9bf48c154ab2acb5e44625776d821bf
c g++ (Gentoo 12.3.1_p20230526 p2) 12.3.1 20230526 -Wall -Wextra -O3 -DNDEBUG
c Sat Aug 9 07:26:21 PDT 2025 Linux cedar2.int.cedar.computecanada.ca 5.14.0-362.24.2.el9_3.x86_64 x86_64
c 
c --- [ limit ] --------------------------------------------------------------
c 
c setting time limit to 1600 seconds real time (due to '-t 1600')
c 
c --- [ parsing input ] ------------------------------------------------------
c 
c reading DIMACS file from './data/cnfs//cal97/cal97.37.cnf'
c opening file to read './data/cnfs//cal97/cal97.37.cnf'
c found 'p cnf 1058867 3014080' header
c parsed 3014080 clauses in 0.48 seconds process time
c 
c --- [ options ] ------------------------------------------------------------
c 
c   --compact=false                (different from default 'true')
c   --decompose=false              (different from default 'true')
c   --deduplicate=false            (different from default 'true')
c   --elim=false                   (different from default 'true')
c   --probe=false                  (different from default 'true')
c   --reduce=false                 (different from default 'true')
c   --subsume=false                (different from default 'true')
c   --ternary=false                (different from default 'true')
c   --transred=false               (different from default 'true')
c   --vivify=false                 (different from default 'true')
c 
c --- [ solving ] ------------------------------------------------------------
c 
c time measured in process time since initialization
c 
c  seconds   reductions  redundant   irredundant
c          MB    restarts       trail         variables
c           level   conflicts       glue            remaining
c 
c *  0.48 457  0 0   0    0    0  0% 0 2812588 1013599 96%
c {  0.49 458  0 0   0    0    0  0% 0 2812588 1013599 96%
c i  0.51 458 792 0   3   61   60  6% 3 2812588 1013598 96%
c i  0.51 458 677 0   3   72   70  6% 3 2812588 1013597 96%
c i  0.51 458 311 0   6  184  172  5% 3 2812588 1013596 96%
c i  0.51 458 288 0  10  199  186  5% 3 2812588 1013595 96%
c i  0.51 458 255 0  15  236  217  5% 3 2812588 1013594 96%
c i  0.51 458 193 0  26  335  308  5% 4 2812588 1013593 96%
c i  0.51 458 192 0  27  339  311  5% 4 2812588 1013591 96%
c }  1.15 469 16057 0  35 1000  971 33% 2 2812588 1013591 96%
c [  1.15 469  0 0  35 1000  971  0% 0 2812588 1013591 96%
c O  1.19 469 32079 0  35 1003  974 63% 2 2812588 1013591 96%
c i  1.54 471 33306 0  36 2303 2102 71% 5 2812588 1013590 96%
c ]  2.00 471 23961 0  36 3001 2692 53% 7 2812588 1013589 96%
c {  2.00 471 16057 0  36 3001 2692 33% 2 2812588 1013589 96%
c F  2.04 471 16081 0  36 3004 2695 33% 2 2812588 1013589 96%
c i  2.54 473 12936 0  56 3270 2932 31% 2 2812588 1013588 96%
c i  2.74 473 12156 0  73 3357 3008 31% 2 2812588 1013587 96%
c i  3.30 473 9466 0 174 3756 3369 26% 3 2812588 1013585 96%
c i  3.31 473 9310 0 181 3784 3396 26% 3 2812588 1013584 96%
c 
c  seconds     reductions  redundant   irredundant
c          MB      restarts       trail         variables
c            level    conflicts       glue            remaining
c 
c i  3.53 473 7801 0 247 4144 3713 23% 3 2812588 1013583 96%
c i  3.53 473 7706 0 250 4173 3735 23% 3 2812588 1013582 96%
c i  3.55 473 7192 0 288 4322 3876 22% 3 2812588 1013581 96%
c i  4.18 473 5092 0 474 5269 4763 18% 3 2812588 1013578 96%
c #  5.03 474 5708 0 512 6005 5404 21% 3 2812588 1013578 96%
c i  6.37 477 4967 0 589 6608 5968 21% 3 2812588 1013577 96%
c }  6.90 477 4577 0 683 7001 6320 20% 4 2812588 1013577 96%
c [  6.90 477 23961 0 683 7001 6320 53% 7 2812588 1013577 96%
c i  6.91 477 22979 0 683 7085 6400 52% 7 2812588 1013576 96%
c i  6.96 477 20989 0 684 7286 6574 48% 7 2812588 1013575 96%
c i  6.99 477 20733 0 684 7318 6599 48% 6 2812588 1013572 96%
c i  7.00 477 20695 0 684 7323 6603 48% 6 2812588 1013571 96%
c i  7.02 477 20652 0 684 7330 6609 48% 6 2812588 1013570 96%
c i  7.86 477 19307 0 684 8356 7443 49% 6 2812588 1013559 96%
c i  7.87 477 19412 0 684 8375 7456 49% 6 2812588 1013558 96%
c i  7.92 477 20084 0 684 8627 7681 52% 6 2812588 1013551 96%
c i  7.96 478 18296 0 684 8993 8012 52% 7 2812588 1013548 96%
c I  8.31 478 14676 0 685 10006 8933 50% 9 2812588 1013544 96%
c i  8.38 478 12658 0 686 10783 9630 44% 9 2812588 1013543 96%
c i  8.47 479 8381 0 688 13616 12193 31% 8 2812588 1013542 96%
c 
c  seconds     reductions    redundant   irredundant
c          MB      restarts         trail         variables
c            level     conflicts        glue            remaining
c 
c ]  8.54 479 7168 0 688 15001 13428 27% 8 2812588 1013542 96%
c {  8.54 479 4577 0 688 15001 13428 20% 4 2812588 1013542 96%
c B  8.54 479 4571 0 690 15008 13434 20% 4 2812588 1013542 96%
c i  8.86 479 4380 0 729 15223 13631 19% 4 2812588 1013539 96%
... skipped 345 lines ...
c 
c i 1226.09 832 162 0 68902 1465309 1067565 19% 11 2755312 1011282 96%
c i 1226.23 832 162 0 68910 1465516 1067750 19% 11 2755312 1011279 96%
c i 1239.16 834 173 0 69047 1483976 1084014 21% 11 2755312 1011276 96%
c i 1239.30 834 174 0 69047 1484184 1084199 21% 11 2755312 1011273 96%
c i 1239.30 834 174 0 69047 1484187 1084201 21% 11 2755312 1011270 96%
c i 1239.31 834 174 0 69047 1484330 1084330 21% 11 2755312 1011267 96%
c i 1239.39 834 174 0 69048 1484507 1084487 21% 11 2755312 1011261 96%
c F 1239.63 834 173 0 69052 1485117 1085040 21% 11 2755312 1011261 96%
c i 1253.61 834 173 0 69813 1492733 1091923 21% 11 2755312 1011258 96%
c i 1253.63 834 173 0 69813 1492845 1092015 21% 11 2755312 1011256 96%
c i 1258.49 834 176 0 70040 1495733 1094701 21% 11 2755312 1011252 96%
c i 1259.51 834 175 0 70080 1496724 1095601 21% 11 2755312 1011249 96%
c i 1259.52 834 175 0 70080 1496749 1095618 21% 11 2755312 1011246 96%
c i 1265.79 834 174 0 70382 1500178 1098759 21% 11 2755312 1011243 96%
c i 1284.72 834 173 0 71206 1509716 1107473 21% 11 2755312 1011240 96%
c i 1314.93 834 169 0 72848 1526846 1123100 20% 11 2755312 1011237 96%
c B 1331.09 834 173 0 73292 1540119 1134802 21% 11 2755312 1011237 96%
c i 1344.64 834 167 0 73885 1549931 1143826 21% 11 2755312 1011234 96%
c i 1374.09 839 167 0 75432 1567590 1159893 21% 11 2755312 1011231 96%
c i 1374.16 839 167 0 75436 1567663 1159960 21% 11 2755312 1011228 96%
c 
c   seconds     reductions         redundant     irredundant
c            MB      restarts              trail          variables
c              level       conflicts           glue             remaining
c 
c i 1374.17 839 167 0 75436 1567742 1160032 21% 11 2755312 1011225 96%
c i 1390.52 842 165 0 76288 1576876 1168172 20% 11 2755312 1011222 96%
c i 1390.52 842 165 0 76288 1576877 1168172 20% 11 2755312 1011219 96%
c W 1428.97 866 159 0 78357 1596120 1185672 20% 11 2755062 1011219 96%
c i 1481.83 868 165 0 80816 1631517 1217836 20% 11 2755062 1011216 95%
c i 1482.14 868 165 0 80826 1631828 1218126 20% 11 2755062 1011215 95%
c i 1482.27 869 166 0 80826 1631950 1218242 20% 11 2755062 1011212 95%
c i 1504.16 869 166 0 81843 1643612 1228911 20% 11 2755062 1011210 95%
c i 1504.16 869 166 0 81843 1643617 1228914 20% 11 2755062 1011206 95%
c i 1504.48 869 170 0 81844 1644224 1229480 20% 11 2755062 1011203 95%
c i 1516.51 869 168 0 82452 1650441 1235196 20% 11 2755062 1011200 95%
c i 1516.77 869 168 0 82458 1650820 1235552 20% 11 2755062 1011197 95%
c # 1521.56 869 168 0 82719 1653122 1237618 20% 11 2755062 1011197 95%
c i 1536.90 870 161 0 83203 1668443 1252011 20% 11 2755062 1011195 95%
c i 1537.32 870 162 0 83208 1669116 1252626 20% 11 2755062 1011192 95%
c i 1537.86 870 164 0 83218 1669589 1253062 20% 11 2755062 1011189 95%
c i 1568.57 870 157 0 84642 1689877 1271252 20% 11 2755062 1011186 95%
c i 1570.89 870 157 0 84767 1690584 1271881 20% 11 2755062 1011183 95%
c } 1591.45 870 152 0 86308 1701501 1281582 20% 11 2755062 1011183 95%
c ? 1591.45 870 152 0 86308 1701501 1281582 20% 11 2755062 1011183 95%
c 
c --- [ result ] -------------------------------------------------------------
c 
c UNKNOWN
c 
c --- [ run-time profiling ] -------------------------------------------------
c 
c process time taken by individual solving procedures
c (percentage relative to process time for solving)
c 
c      1590.96  100.00% search
c      1281.16   80.53% unstable
c       295.80   18.59% stable
c        13.99    0.88% walk
c         0.48    0.03% parse
c         0.01    0.00% lucky
c         0.00    0.00% simplify
c   =================================
c      1590.96   99.97% solve
c 
c last line shows process time for solving
c (percentage relative to total process time)
c 
c --- [ statistics ] ---------------------------------------------------------
c 
c chronological:            520877        30.61 %  of conflicts
c conflicts:               1701501      1069.48    per second
c decisions:              12967767      8150.89    per second
c fixed:                     47683         4.50 %  of all variables
c learned:                 1641235        96.46 %  per conflict
c learned_lits:          138986555       100.00 %  learned literals
c minimized:                     0         0.00 %  learned literals
c shrunken:               35956486        25.87 %  learned literals
c minishrunken:           30136567        21.68 %  learned literals
c otfs:                       7061         0.41 %  of conflict
c propagations:        13463663935         8.46 M  per second
c rephased:                     57     29850.89    interval
c restarts:                  86308        19.71    interval
c stabilizing:                   5        40.07 %  of conflicts
c subsumed:                 162514         3.65 %  of all clauses
c strengthened:               6687         0.15 %  of all clauses
c walked:                       18     94527.83    interval
c 
c seconds are measured in process time for solving
c 
c --- [ resources ] ----------------------------------------------------------
c 
c total process time since initialization:      1591.45    seconds
c total real time since initialization:         1600.00    seconds
c maximum resident set size of process:         1215.66    MB
c 
c --- [ shutting down ] ------------------------------------------------------
c 
c exit 0
